c CNF file generated from BLIF2CNF script.
c Original BLIF file was comb/t.blif
p cnf 43 76
-1 -3 0
3 1  0
-3 2 0
-2 3  0
-4 -7 0
-5 -7 0
6 -7 0
7 4 5 -6  0
-7 1 0
-1 7  0
9 -12 0
10 -12 0
12 -9 -10  0
-12 4 0
8 -13 0
11 -13 0
13 -8 -11  0
-13 4 0
-4 12 13  0
-14 -17 0
-15 -17 0
17 14 15  0
-17 5 0
14 -18 0
16 -18 0
18 -14 -16  0
-18 5 0
-5 17 18  0
19 -22 0
-20 -22 0
-21 -22 0
22 -19 20 21  0
-22 15 0
-20 -23 0
-9 -23 0
-21 -23 0
23 20 9 21  0
-23 15 0
-15 22 23  0
-24 -25 0
11 -25 0
25 24 -11  0
-25 21 0
-21 25  0
9 -29 0
27 -29 0
29 -9 -27  0
-29 16 0
26 -30 0
28 -30 0
30 -26 -28  0
-30 16 0
-16 29 30  0
-31 -34 0
-32 -34 0
-33 -34 0
34 31 32 33  0
-34 6 0
-20 -35 0
-32 -35 0
-33 -35 0
35 20 32 33  0
-35 6 0
-6 34 35  0
36 -39 0
37 -39 0
-38 -39 0
39 -36 -37 38  0
-39 32 0
-32 39  0
40 -43 0
41 -43 0
42 -43 0
43 -40 -41 -42  0
-43 33 0
-33 43  0
